\Problem name: 

Minimize
OBJROW: C
Subject To
ord(0,1):  x(0,0) - x(0,2) >= 2
ord(0,2):  - x(0,0) + x(0,1) >= 4
ord(1,1):  - x(1,1) + x(1,2) >= 3
ord(1,2):  x(1,0) - x(1,2) >= 6
ord(2,1):  x(2,1) - x(2,2) >= 1
ord(2,2):  x(2,0) - x(2,1) >= 5
phi(0,1,0):  x(0,0) - x(1,0) + 42 y(0,1,0) >= 8
psy(0,1,0):  - x(0,0) + x(1,0) -42 y(0,1,0) >= -38
phi(0,1,1):  x(0,1) - x(1,1) + 42 y(0,1,1) >= 3
psy(0,1,1):  - x(0,1) + x(1,1) -42 y(0,1,1) >= -36
phi(0,1,2):  x(0,2) - x(1,2) + 42 y(0,1,2) >= 6
psy(0,1,2):  - x(0,2) + x(1,2) -42 y(0,1,2) >= -40
phi(0,2,0):  x(0,0) - x(2,0) + 42 y(0,2,0) >= 7
psy(0,2,0):  - x(0,0) + x(2,0) -42 y(0,2,0) >= -38
phi(0,2,1):  x(0,1) - x(2,1) + 42 y(0,2,1) >= 5
psy(0,2,1):  - x(0,1) + x(2,1) -42 y(0,2,1) >= -36
phi(0,2,2):  x(0,2) - x(2,2) + 42 y(0,2,2) >= 1
psy(0,2,2):  - x(0,2) + x(2,2) -42 y(0,2,2) >= -40
phi(1,0,0):  - x(0,0) + x(1,0) + 42 y(1,0,0) >= 4
psy(1,0,0):  x(0,0) - x(1,0) -42 y(1,0,0) >= -34
phi(1,0,1):  - x(0,1) + x(1,1) + 42 y(1,0,1) >= 6
psy(1,0,1):  x(0,1) - x(1,1) -42 y(1,0,1) >= -39
phi(1,0,2):  - x(0,2) + x(1,2) + 42 y(1,0,2) >= 2
psy(1,0,2):  x(0,2) - x(1,2) -42 y(1,0,2) >= -36
phi(1,2,0):  x(1,0) - x(2,0) + 42 y(1,2,0) >= 7
psy(1,2,0):  - x(1,0) + x(2,0) -42 y(1,2,0) >= -34
phi(1,2,1):  x(1,1) - x(2,1) + 42 y(1,2,1) >= 5
psy(1,2,1):  - x(1,1) + x(2,1) -42 y(1,2,1) >= -39
phi(1,2,2):  x(1,2) - x(2,2) + 42 y(1,2,2) >= 1
psy(1,2,2):  - x(1,2) + x(2,2) -42 y(1,2,2) >= -36
phi(2,0,0):  - x(0,0) + x(2,0) + 42 y(2,0,0) >= 4
psy(2,0,0):  x(0,0) - x(2,0) -42 y(2,0,0) >= -35
phi(2,0,1):  - x(0,1) + x(2,1) + 42 y(2,0,1) >= 6
psy(2,0,1):  x(0,1) - x(2,1) -42 y(2,0,1) >= -37
phi(2,0,2):  - x(0,2) + x(2,2) + 42 y(2,0,2) >= 2
psy(2,0,2):  x(0,2) - x(2,2) -42 y(2,0,2) >= -41
phi(2,1,0):  - x(1,0) + x(2,0) + 42 y(2,1,0) >= 8
psy(2,1,0):  x(1,0) - x(2,0) -42 y(2,1,0) >= -35
phi(2,1,1):  - x(1,1) + x(2,1) + 42 y(2,1,1) >= 3
psy(2,1,1):  x(1,1) - x(2,1) -42 y(2,1,1) >= -37
phi(2,1,2):  - x(1,2) + x(2,2) + 42 y(2,1,2) >= 6
psy(2,1,2):  x(1,2) - x(2,2) -42 y(2,1,2) >= -41
makespan(0):  C - x(0,1) >= 6
makespan(1):  C - x(1,0) >= 8
makespan(2):  C - x(2,0) >= 7
basic_cuts_best1(012,0):  4 x(0,0) + 8 x(1,0) + 7 x(2,0) >= 154
two_jobs_cuts1(1,2,0):  11 x(1,0) + 4 x(2,0) >= 167
clique_cuts1(012,0):  0.054794521 x(1,0) + 0.047945205 x(2,0) >= 1
late_job_cuts_best1(01,0,0,1):  x(0,0) + 7 y(0,1,0) -8 y(1,0,0) >= 9
late_job_cuts_best1(01,0,0,2):  x(0,0) + 4 y(0,2,0) -8 y(1,0,0) >= 6
basic_cuts_plus_epsilon_best1(02,0,1):  4 x(0,0) + 7 x(2,0) + 77 y(0,1,0) + 33 y(2,1,0) >= 127
late_job_cuts_best1(12,0,1,1):  x(1,0) -4 y(2,1,0) >= 9
half_cuts_best1(2,12,0):  x(2,0) -8 y(1,2,0) >= 6
basic_cuts_plus_epsilon_best1(01,0,2):  4 x(0,0) + 8 x(1,0) + 48 y(0,2,0) >= 104
late_job_cuts_best1(12,0,2,1):  x(2,0) -8 y(1,2,0) + 3 y(2,1,0) >= 9
late_job_cuts_best1(012,0,2,2):  x(2,0) -8 y(1,2,0) >= 6
basic_cuts_best1(012,1):  6 x(0,1) + 3 x(1,1) + 5 x(2,1) >= 63
two_jobs_cuts1(1,2,1):  2 x(1,1) + 6 x(2,1) >= 18
clique_cuts1(012,1):  0.095238095 x(0,1) + 0.029100529 x(1,1) + 0.079365079 x(2,1) >= 1
basic_cuts_plus_epsilon_best1(12,1,0):  3 x(1,1) + 5 x(2,1) + 48 y(1,0,1) + 40 y(2,0,1) >= 63
half_cuts_best1(1,12,1):  x(1,1) -5 y(2,1,1) >= 0
late_job_cuts_best1(01,1,1,0):  x(1,1) -6 y(0,1,1) + 6 y(1,0,1) >= 6
late_job_cuts_best1(012,1,1,1):  x(1,1) -6 y(0,1,1) -5 y(2,1,1) >= 0
late_job_cuts_best1(012,1,1,2):  x(1,1) -6 y(0,1,1) + y(1,2,1) -5 y(2,1,1) >= 1
late_job_cuts_best1(02,1,2,0):  x(2,1) -6 y(0,2,1) + 5 y(2,0,1) >= 6
late_job_cuts_best1(012,1,2,2):  x(2,1) -6 y(0,2,1) -2 y(1,2,1) >= 1
basic_cuts_best1(02,2):  2 x(0,2) + x(2,2) >= 2
two_jobs_cuts1(0,2,2):  2 x(0,2) + x(2,2) >= 2
clique_cuts1(012,2):  0.100000000 x(0,2) + 0.300000000 x(1,2) + 0.050000000 x(2,2) >= 1
half_cuts_best1(0,02,2):  x(0,2) - y(2,0,2) >= 0
late_job_cuts_best1(012,2,0,0):  x(0,2) -6 y(1,0,2) - y(2,0,2) >= 0
late_job_cuts_best1(01,2,0,1):  x(0,2) + 3 y(0,1,2) -6 y(1,0,2) >= 3
late_job_cuts_best1(012,2,0,2):  x(0,2) -6 y(1,0,2) - y(2,0,2) >= 0
basic_cuts_plus_epsilon_best1(02,2,1):  2 x(0,2) + x(2,2) + 9 y(0,1,2) + 9 y(2,1,2) >= 11
half_cuts_best1(2,02,2):  x(2,2) -2 y(0,2,2) >= 0
late_job_cuts_best1(012,2,2,0):  x(2,2) -2 y(0,2,2) -6 y(1,2,2) >= 0
late_job_cuts_best1(12,2,2,1):  x(2,2) -6 y(1,2,2) + 3 y(2,1,2) >= 3
late_job_cuts_best1(012,2,2,2):  x(2,2) -2 y(0,2,2) -6 y(1,2,2) >= 0
Bounds
 0 <= y(0,0,0) <= 1
 0 <= y(0,0,1) <= 1
 0 <= y(0,0,2) <= 1
 0 <= y(0,1,0) <= 1
 0 <= y(0,1,1) <= 1
 0 <= y(0,1,2) <= 1
 0 <= y(0,2,0) <= 1
 0 <= y(0,2,1) <= 1
 0 <= y(0,2,2) <= 1
 0 <= y(1,0,0) <= 1
 0 <= y(1,0,1) <= 1
 0 <= y(1,0,2) <= 1
 0 <= y(1,1,0) <= 1
 0 <= y(1,1,1) <= 1
 0 <= y(1,1,2) <= 1
 0 <= y(1,2,0) <= 1
 0 <= y(1,2,1) <= 1
 0 <= y(1,2,2) <= 1
 0 <= y(2,0,0) <= 1
 0 <= y(2,0,1) <= 1
 0 <= y(2,0,2) <= 1
 0 <= y(2,1,0) <= 1
 0 <= y(2,1,1) <= 1
 0 <= y(2,1,2) <= 1
 0 <= y(2,2,0) <= 1
 0 <= y(2,2,1) <= 1
 0 <= y(2,2,2) <= 1
End
